Minimize
  obj: x0 + x1 + x2 + x3

Subject To
  c0: x0 + x1 + x2 + x3 = 25
  c1: x0 + x2 + x3 = 23
  c2: x2 + x3 = 23
  c3: x0 + x1 + x2 = 18
  c4: x0 + x2 = 16
  c5: x0 + x3 = 7

Bounds
  x0 >= 0
  x1 >= 0
  x2 >= 0
  x3 >= 0

Generals
  x0 x1 x2 x3

End
